c colouring generated by benchmark framework
p edge 500 3555
v 1 1
v 2 3
v 3 3
v 4 4
v 5 3
v 6 12
v 7 1
v 8 6
v 9 12
v 10 6
v 11 7
v 12 11
v 13 11
v 14 10
v 15 13
v 16 0
v 17 1
v 18 6
v 19 0
v 20 2
v 21 8
v 22 1
v 23 5
v 24 0
v 25 4
v 26 6
v 27 12
v 28 0
v 29 2
v 30 7
v 31 5
v 32 12
v 33 8
v 34 11
v 35 5
v 36 9
v 37 1
v 38 6
v 39 4
v 40 7
v 41 0
v 42 0
v 43 5
v 44 8
v 45 13
v 46 10
v 47 12
v 48 0
v 49 9
v 50 12
v 51 3
v 52 10
v 53 0
v 54 6
v 55 7
v 56 5
v 57 8
v 58 13
v 59 11
v 60 7
v 61 2
v 62 4
v 63 1
v 64 3
v 65 6
v 66 3
v 67 10
v 68 8
v 69 8
v 70 7
v 71 13
v 72 4
v 73 6
v 74 8
v 75 10
v 76 5
v 77 6
v 78 12
v 79 3
v 80 2
v 81 7
v 82 13
v 83 3
v 84 8
v 85 9
v 86 0
v 87 8
v 88 9
v 89 7
v 90 8
v 91 5
v 92 3
v 93 1
v 94 9
v 95 13
v 96 12
v 97 8
v 98 0
v 99 10
v 100 1
v 101 9
v 102 2
v 103 4
v 104 5
v 105 6
v 106 2
v 107 0
v 108 2
v 109 12
v 110 12
v 111 9
v 112 10
v 113 2
v 114 5
v 115 5
v 116 9
v 117 6
v 118 0
v 119 3
v 120 0
v 121 10
v 122 3
v 123 6
v 124 4
v 125 9
v 126 11
v 127 6
v 128 1
v 129 2
v 130 2
v 131 8
v 132 2
v 133 9
v 134 1
v 135 9
v 136 12
v 137 5
v 138 11
v 139 11
v 140 6
v 141 13
v 142 5
v 143 12
v 144 2
v 145 8
v 146 3
v 147 6
v 148 10
v 149 5
v 150 0
v 151 5
v 152 8
v 153 4
v 154 13
v 155 5
v 156 10
v 157 2
v 158 13
v 159 13
v 160 2
v 161 8
v 162 1
v 163 2
v 164 5
v 165 11
v 166 13
v 167 11
v 168 2
v 169 0
v 170 3
v 171 9
v 172 3
v 173 0
v 174 13
v 175 8
v 176 2
v 177 8
v 178 4
v 179 11
v 180 4
v 181 3
v 182 0
v 183 2
v 184 12
v 185 9
v 186 11
v 187 2
v 188 9
v 189 13
v 190 6
v 191 8
v 192 6
v 193 3
v 194 7
v 195 8
v 196 1
v 197 10
v 198 4
v 199 5
v 200 9
v 201 0
v 202 6
v 203 2
v 204 13
v 205 11
v 206 12
v 207 1
v 208 6
v 209 1
v 210 7
v 211 5
v 212 1
v 213 2
v 214 12
v 215 9
v 216 10
v 217 2
v 218 0
v 219 0
v 220 1
v 221 10
v 222 7
v 223 6
v 224 4
v 225 3
v 226 12
v 227 12
v 228 10
v 229 13
v 230 2
v 231 9
v 232 0
v 233 8
v 234 6
v 235 7
v 236 7
v 237 11
v 238 6
v 239 4
v 240 4
v 241 13
v 242 9
v 243 4
v 244 8
v 245 12
v 246 11
v 247 10
v 248 0
v 249 5
v 250 12
v 251 6
v 252 13
v 253 12
v 254 0
v 255 3
v 256 7
v 257 12
v 258 5
v 259 13
v 260 11
v 261 1
v 262 6
v 263 1
v 264 4
v 265 3
v 266 5
v 267 13
v 268 13
v 269 3
v 270 2
v 271 6
v 272 0
v 273 10
v 274 5
v 275 0
v 276 4
v 277 4
v 278 4
v 279 11
v 280 6
v 281 5
v 282 1
v 283 10
v 284 3
v 285 2
v 286 0
v 287 1
v 288 2
v 289 7
v 290 11
v 291 5
v 292 3
v 293 0
v 294 13
v 295 13
v 296 13
v 297 6
v 298 4
v 299 8
v 300 8
v 301 0
v 302 11
v 303 3
v 304 3
v 305 2
v 306 7
v 307 10
v 308 9
v 309 7
v 310 7
v 311 4
v 312 0
v 313 13
v 314 10
v 315 6
v 316 11
v 317 1
v 318 3
v 319 13
v 320 10
v 321 11
v 322 8
v 323 7
v 324 4
v 325 8
v 326 8
v 327 11
v 328 10
v 329 11
v 330 12
v 331 5
v 332 0
v 333 8
v 334 8
v 335 7
v 336 6
v 337 9
v 338 12
v 339 13
v 340 3
v 341 8
v 342 6
v 343 3
v 344 10
v 345 4
v 346 9
v 347 0
v 348 9
v 349 2
v 350 2
v 351 1
v 352 6
v 353 6
v 354 2
v 355 11
v 356 2
v 357 0
v 358 12
v 359 11
v 360 9
v 361 5
v 362 0
v 363 0
v 364 11
v 365 12
v 366 1
v 367 6
v 368 4
v 369 0
v 370 3
v 371 10
v 372 4
v 373 9
v 374 9
v 375 6
v 376 1
v 377 9
v 378 12
v 379 8
v 380 13
v 381 2
v 382 0
v 383 12
v 384 10
v 385 12
v 386 6
v 387 11
v 388 7
v 389 13
v 390 2
v 391 12
v 392 3
v 393 11
v 394 10
v 395 1
v 396 12
v 397 6
v 398 13
v 399 4
v 400 11
v 401 11
v 402 8
v 403 13
v 404 7
v 405 7
v 406 4
v 407 10
v 408 1
v 409 3
v 410 0
v 411 1
v 412 12
v 413 12
v 414 5
v 415 2
v 416 10
v 417 3
v 418 7
v 419 7
v 420 5
v 421 7
v 422 6
v 423 5
v 424 13
v 425 4
v 426 8
v 427 4
v 428 2
v 429 5
v 430 3
v 431 7
v 432 10
v 433 7
v 434 8
v 435 4
v 436 10
v 437 7
v 438 7
v 439 3
v 440 5
v 441 10
v 442 12
v 443 4
v 444 2
v 445 5
v 446 10
v 447 13
v 448 8
v 449 12
v 450 8
v 451 5
v 452 0
v 453 4
v 454 10
v 455 12
v 456 5
v 457 3
v 458 8
v 459 12
v 460 7
v 461 0
v 462 12
v 463 1
v 464 5
v 465 2
v 466 12
v 467 7
v 468 1
v 469 11
v 470 3
v 471 6
v 472 10
v 473 2
v 474 9
v 475 12
v 476 13
v 477 8
v 478 2
v 479 9
v 480 9
v 481 10
v 482 11
v 483 10
v 484 3
v 485 5
v 486 6
v 487 13
v 488 9
v 489 3
v 490 4
v 491 8
v 492 4
v 493 12
v 494 5
v 495 1
v 496 0
v 497 11
v 498 10
v 499 4
v 500 11
